g3 0 1 0	# problem sambal
 17 10 1 0 10	# vars, constraints, objectives, ranges, eqns
 0 1	# nonlinear constraints, objectives
 0 0	# network constraints: nonlinear, linear
 0 13 0	# nonlinear vars in constraints, objectives, both
 0 0 0 1	# linear network variables; functions; arith, flags
 0 0 0 0 0	# discrete variables: binary, integer, nonlinear (b,c,o)
 34 13	# nonzeros in Jacobian, gradients
 0 0	# max name lengths: constraints, variables
 0 0 0 0 0	# common exprs: b,c,o,c1,o1
b
3
3
3
3
3
3
3
3
3
3
3
3
3
3
3
3
3
x13
0 15
1 3
2 130
3 80
4 15
5 130
6 20
7 25
8 40
9 55
10 220
11 190
12 105
r
4 0
4 0
4 0
4 0
4 0
4 0
4 0
4 0
4 0
4 0
C0
n0
C1
n0
C2
n0
C3
n0
C4
n0
C5
n0
C6
n0
C7
n0
C8
n0
C9
n0
O0 0
o54
13
o2
n0.0666666666666667
o5
o1
n15
v0
n2
o2
n0.333333333333333
o5
o1
n3
v1
n2
o2
n0.00769230769230769
o5
o1
n130
v2
n2
o2
n0.0125
o5
o1
n80
v3
n2
o2
n0.0666666666666667
o5
o1
n15
v4
n2
o2
n0.00769230769230769
o5
o1
n130
v5
n2
o2
n0.05
o5
o1
n20
v6
n2
o2
n0.04
o5
o1
n25
v7
n2
o2
n0.025
o5
o1
n40
v8
n2
o2
n0.0181818181818182
o5
o1
n55
v9
n2
o2
n0.00454545454545455
o5
o1
n220
v10
n2
o2
n0.00526315789473684
o5
o1
n190
v11
n2
o2
n0.00952380952380952
o5
o1
n105
v12
n2
k16
2
4
6
8
10
12
14
16
18
20
22
24
26
28
30
32
J0 5
0 -1
1 -1
2 -1
3 -1
10 1
J1 2
13 -1
15 1
J2 2
14 -1
16 1
J3 4
4 -1
5 -1
6 -1
11 1
J4 4
7 -1
8 -1
9 -1
12 1
J5 3
10 1
13 -1
14 -1
J6 4
0 -1
4 -1
7 -1
15 1
J7 4
1 -1
5 -1
8 -1
16 1
J8 3
2 -1
9 -1
11 1
J9 3
3 -1
6 -1
12 1
G0 13
0 0
1 0
2 0
3 0
4 0
5 0
6 0
7 0
8 0
9 0
10 0
11 0
12 0
